15
1 9
1 10
1 12
1 14
2 6
2 8
3 5
3 7
3 9
3 10
3 14
4 5
4 6
4 8
4 10
4 15
5 6
5 9
5 10
5 15
6 8
6 10
6 11
6 12
6 14
6 15
7 8
7 9
7 10
7 11
7 12
7 14
8 10
9 12
9 13
9 14
10 12
10 14
11 14
11 15
12 15
13 15
